;; sat

(declare-const x1 sl.list.loc)
(declare-const x2 sl.list.loc)
(declare-const x3 sl.list.loc)
(declare-const x4 sl.list.loc)
(declare-const x5 sl.list.loc)
(declare-const x6 sl.list.loc)
(declare-const x7 sl.list.loc)
(declare-const x8 sl.list.loc)
(declare-const x9 sl.list.loc)
(declare-const x10 sl.list.loc)
(declare-const x11 sl.list.loc)
(declare-const x12 sl.list.loc)
(declare-const x13 sl.list.loc)
(declare-const x14 sl.list.loc)
(declare-const x15 sl.list.loc)
(declare-const x16 sl.list.loc)
(declare-const x18 sl.list.loc)
(declare-const x19 sl.list.loc)
(declare-const x20 sl.list.loc)

(assert (sl.sepcon (sl.sepcon (sl.sepcon (sl.sepcon (sl.sepcon (sl.sepcon (sl.sepcon (sl.sepcon (sl.sepcon (sl.sepcon (sl.sepcon (sl.sepcon (sl.sepcon (sl.sepcon (sl.sepcon (sl.sepcon (sl.sepcon (sl.sepcon (sl.sepcon (sl.sepcon (sl.sepcon (sl.sepcon (sl.sepcon (sl.sepcon (sl.sepcon (sl.sepcon (sl.sepcon (sl.sepcon (sl.sepcon (sl.sepcon (sl.list.eq sl.list.null sl.list.null)
 (sl.list.neq x6 x18)
)
 (sl.list.neq x6 x7)
)
 (sl.list.neq x11 x13)
)
 (sl.list.neq x11 x15)
)
 (sl.list.neq x11 x20)
)
 (sl.list.neq x3 x14)
)
 (sl.list.neq x7 x10)
)
 (sl.list.neq x7 x13)
)
 (sl.list.neq x2 x11)
)
 (sl.list.neq x2 x10)
)
 (sl.list.neq x2 x16)
)
 (sl.list.neq x12 x18)
)
 (sl.list.neq x12 x16)
)
 (sl.list.neq x12 x20)
)
 (sl.list.neq x15 x19)
)
 (sl.list.neq x15 x16)
)
 (sl.list.neq x15 x20)
)
 (sl.list.neq x14 x16)
)
 (sl.list.neq x14 x15)
)
 (sl.list.neq x4 x19)
)
 (sl.list.neq x4 x14)
)
 (sl.list.neq x1 x12)
)
 (sl.list.neq x1 x5)
)
 (sl.list.neq x1 x14)
)
 (sl.list.neq x10 x18)
)
 (sl.list.neq x13 x16)
)
 (sl.list.neq x5 x6)
)
 (sl.list.neq x5 x11)
)
 (sl.list.neq x5 x18)
)
 (sl.sepcon (sl.sepcon (sl.sepcon (sl.sepcon (sl.sepcon (sl.sepcon (sl.sepcon (sl.sepcon (sl.sepcon (sl.sepcon (sl.sepcon (sl.sepcon (sl.list.seg x16 x2)
 (sl.list.seg x13 x15)
)
 (sl.list.seg x13 x18)
)
 (sl.list.seg x19 x2)
)
 (sl.list.seg x18 x15)
)
 (sl.list.seg x18 x10)
)
 (sl.list.seg x1 x7)
)
 (sl.list.seg x8 x2)
)
 (sl.list.seg x8 x6)
)
 (sl.list.seg x20 x9)
)
 (sl.list.seg x2 x5)
)
 (sl.list.seg x3 x16)
)
 (sl.list.seg x11 x15)
)
)
)

